\ Model MTZ_MODEL
\ LP format - for model browsing. Use MPS format to capture full model detail.
Minimize
  p[0,1] + p[0,2] + p[0,3] + p[0,4] + p[0,5] + p[1,0] + p[1,2] + p[1,3]
   + p[1,4] + p[1,5] + p[2,0] + p[2,1] + p[2,3] + p[2,4] + p[2,5] + p[3,0]
   + p[3,1] + p[3,2] + p[3,4] + p[3,5] + p[4,0] + p[4,1] + p[4,2] + p[4,3]
   + p[4,5] + p[5,0] + p[5,1] + p[5,2] + p[5,3] + p[5,4] + dc[0] + dc[1]
   + dc[2] + dc[3] + dc[4] + dc[5] + 0 difc[4,0] + 0 difc[4,1]
Subject To
 p2: p[0,1] - 46.5058228154794 z[0,1] >= 0
 p3: p[0,1] - 66.96462176068997 z[0,1] - dcc[0,1] >= -66.96462176068997
 R2: dcc[0,1] <= 66.96462176068997
 R3: x[0,1,0] - x[1,0,0] + dif[0,1,0] >= 0
 R4: - x[0,1,0] + x[1,0,0] + dif[0,1,0] >= 0
 R5: x[0,1,1] - x[1,0,1] + dif[0,1,1] >= 0
 R6: - x[0,1,1] + x[1,0,1] + dif[0,1,1] >= 0
 p2: p[0,2] - 2.473564592691724 z[0,2] >= 0
 p3: p[0,2] - 29.7450682549099 z[0,2] - dcc[0,2] >= -29.7450682549099
 R9: dcc[0,2] <= 29.7450682549099
 R10: x[0,1,0] - x[2,0,0] + dif[0,2,0] >= 0
 R11: - x[0,1,0] + x[2,0,0] + dif[0,2,0] >= 0
 R12: x[0,1,1] - x[2,0,1] + dif[0,2,1] >= 0
 R13: - x[0,1,1] + x[2,0,1] + dif[0,2,1] >= 0
 p2: p[0,3] - 3.949931254751537 z[0,3] >= 0
 p3: p[0,3] - 32.2514281867999 z[0,3] - dcc[0,3] >= -32.2514281867999
 R16: dcc[0,3] <= 32.2514281867999
 R17: x[0,1,0] - x[3,0,0] + dif[0,3,0] >= 0
 R18: - x[0,1,0] + x[3,0,0] + dif[0,3,0] >= 0
 R19: x[0,1,1] - x[3,0,1] + dif[0,3,1] >= 0
 R20: - x[0,1,1] + x[3,0,1] + dif[0,3,1] >= 0
 p2: p[0,4] - 30.80261866542114 z[0,4] >= 0
 p3: p[0,4] - 48.95650839658538 z[0,4] - dcc[0,4] >= -48.95650839658538
 R23: dcc[0,4] <= 48.95650839658538
 R24: x[0,1,0] - x[4,0,0] + dif[0,4,0] >= 0
 R25: - x[0,1,0] + x[4,0,0] + dif[0,4,0] >= 0
 R26: x[0,1,1] - x[4,0,1] + dif[0,4,1] >= 0
 R27: - x[0,1,1] + x[4,0,1] + dif[0,4,1] >= 0
 p2: p[0,5] - 20.4730214870296 z[0,5] >= 0
 p3: p[0,5] - 45.48054996852971 z[0,5] - dcc[0,5] >= -45.48054996852971
 R30: dcc[0,5] <= 45.48054996852971
 R31: x[0,1,0] - x[5,0,0] + dif[0,5,0] >= 0
 R32: - x[0,1,0] + x[5,0,0] + dif[0,5,0] >= 0
 R33: x[0,1,1] - x[5,0,1] + dif[0,5,1] >= 0
 R34: - x[0,1,1] + x[5,0,1] + dif[0,5,1] >= 0
 p2: p[1,0] - 46.5058228154794 z[1,0] >= 0
 p3: p[1,0] - 66.96462176068997 z[1,0] - dcc[1,0] >= -66.96462176068997
 R37: dcc[1,0] <= 66.96462176068997
 R38: - x[0,0,0] + x[1,1,0] + dif[1,0,0] >= 0
 R39: x[0,0,0] - x[1,1,0] + dif[1,0,0] >= 0
 R40: - x[0,0,1] + x[1,1,1] + dif[1,0,1] >= 0
 R41: x[0,0,1] - x[1,1,1] + dif[1,0,1] >= 0
 p2: p[1,2] - 53.81752273083203 z[1,2] >= 0
 p3: p[1,2] - 83.92182683439935 z[1,2] - dcc[1,2] >= -83.92182683439935
 R44: dcc[1,2] <= 83.92182683439935
 R45: x[1,1,0] - x[2,0,0] + dif[1,2,0] >= 0
 R46: - x[1,1,0] + x[2,0,0] + dif[1,2,0] >= 0
 R47: x[1,1,1] - x[2,0,1] + dif[1,2,1] >= 0
 R48: - x[1,1,1] + x[2,0,1] + dif[1,2,1] >= 0
 p2: p[1,3] - 29.43413265926642 z[1,3] >= 0
 p3: p[1,3] - 59.93759183555525 z[1,3] - dcc[1,3] >= -59.93759183555525
 R51: dcc[1,3] <= 59.93759183555525
 R52: x[1,1,0] - x[3,0,0] + dif[1,3,0] >= 0
 R53: - x[1,1,0] + x[3,0,0] + dif[1,3,0] >= 0
 R54: x[1,1,1] - x[3,0,1] + dif[1,3,1] >= 0
 R55: - x[1,1,1] + x[3,0,1] + dif[1,3,1] >= 0
 p2: p[1,4] - 62.05679570846873 z[1,4] >= 0
 p3: p[1,4] - 83.24272372374919 z[1,4] - dcc[1,4] >= -83.24272372374919
 R58: dcc[1,4] <= 83.24272372374919
 R59: x[1,1,0] - x[4,0,0] + dif[1,4,0] >= 0
 R60: - x[1,1,0] + x[4,0,0] + dif[1,4,0] >= 0
 R61: x[1,1,1] - x[4,0,1] + dif[1,4,1] >= 0
 R62: - x[1,1,1] + x[4,0,1] + dif[1,4,1] >= 0
 p2: p[1,5] - 64.04002528189689 z[1,5] >= 0
 p3: p[1,5] - 91.03792602875696 z[1,5] - dcc[1,5] >= -91.03792602875696
 R65: dcc[1,5] <= 91.03792602875696
 R66: x[1,1,0] - x[5,0,0] + dif[1,5,0] >= 0
 R67: - x[1,1,0] + x[5,0,0] + dif[1,5,0] >= 0
 R68: x[1,1,1] - x[5,0,1] + dif[1,5,1] >= 0
 R69: - x[1,1,1] + x[5,0,1] + dif[1,5,1] >= 0
 p2: p[2,0] - 2.473564592691724 z[2,0] >= 0
 p3: p[2,0] - 29.7450682549099 z[2,0] - dcc[2,0] >= -29.7450682549099
 R72: dcc[2,0] <= 29.7450682549099
 R73: - x[0,0,0] + x[2,1,0] + dif[2,0,0] >= 0
 R74: x[0,0,0] - x[2,1,0] + dif[2,0,0] >= 0
 R75: - x[0,0,1] + x[2,1,1] + dif[2,0,1] >= 0
 R76: x[0,0,1] - x[2,1,1] + dif[2,0,1] >= 0
 p2: p[2,1] - 53.81752273083203 z[2,1] >= 0
 p3: p[2,1] - 83.92182683439935 z[2,1] - dcc[2,1] >= -83.92182683439935
 R79: dcc[2,1] <= 83.92182683439935
 R80: - x[1,0,0] + x[2,1,0] + dif[2,1,0] >= 0
 R81: x[1,0,0] - x[2,1,0] + dif[2,1,0] >= 0
 R82: - x[1,0,1] + x[2,1,1] + dif[2,1,1] >= 0
 R83: x[1,0,1] - x[2,1,1] + dif[2,1,1] >= 0
 p2: p[2,3] - 8.396692337158125 z[2,3] >= 0
 p3: p[2,3] - 42.36449648798467 z[2,3] - dcc[2,3] >= -42.36449648798467
 R86: dcc[2,3] <= 42.36449648798467
 R87: x[2,1,0] - x[3,0,0] + dif[2,3,0] >= 0
 R88: - x[2,1,0] + x[3,0,0] + dif[2,3,0] >= 0
 R89: x[2,1,1] - x[3,0,1] + dif[2,3,1] >= 0
 R90: - x[2,1,1] + x[3,0,1] + dif[2,3,1] >= 0
 p2: p[2,4] - 14.1038636994017 z[2,4] >= 0
 p3: p[2,4] - 43.53970550133123 z[2,4] - dcc[2,4] >= -43.53970550133123
 R93: dcc[2,4] <= 43.53970550133123
 R94: x[2,1,0] - x[4,0,0] + dif[2,4,0] >= 0
 R95: - x[2,1,0] + x[4,0,0] + dif[2,4,0] >= 0
 R96: x[2,1,1] - x[4,0,1] + dif[2,4,1] >= 0
 R97: - x[2,1,1] + x[4,0,1] + dif[2,4,1] >= 0
 p2: p[2,5] - 2.915010060866175 z[2,5] >= 0
 p3: p[2,5] - 35.21115849754733 z[2,5] - dcc[2,5] >= -35.21115849754733
 R100: dcc[2,5] <= 35.21115849754733
 R101: x[2,1,0] - x[5,0,0] + dif[2,5,0] >= 0
 R102: - x[2,1,0] + x[5,0,0] + dif[2,5,0] >= 0
 R103: x[2,1,1] - x[5,0,1] + dif[2,5,1] >= 0
 R104: - x[2,1,1] + x[5,0,1] + dif[2,5,1] >= 0
 p2: p[3,0] - 3.949931254751537 z[3,0] >= 0
 p3: p[3,0] - 32.2514281867999 z[3,0] - dcc[3,0] >= -32.2514281867999
 R107: dcc[3,0] <= 32.2514281867999
 R108: - x[0,0,0] + x[3,1,0] + dif[3,0,0] >= 0
 R109: x[0,0,0] - x[3,1,0] + dif[3,0,0] >= 0
 R110: - x[0,0,1] + x[3,1,1] + dif[3,0,1] >= 0
 R111: x[0,0,1] - x[3,1,1] + dif[3,0,1] >= 0
 p2: p[3,1] - 29.43413265926642 z[3,1] >= 0
 p3: p[3,1] - 59.93759183555525 z[3,1] - dcc[3,1] >= -59.93759183555525
 R114: dcc[3,1] <= 59.93759183555525
 R115: - x[1,0,0] + x[3,1,0] + dif[3,1,0] >= 0
 R116: x[1,0,0] - x[3,1,0] + dif[3,1,0] >= 0
 R117: - x[1,0,1] + x[3,1,1] + dif[3,1,1] >= 0
 R118: x[1,0,1] - x[3,1,1] + dif[3,1,1] >= 0
 p2: p[3,2] - 8.396692337158125 z[3,2] >= 0
 p3: p[3,2] - 42.36449648798467 z[3,2] - dcc[3,2] >= -42.36449648798467
 R121: dcc[3,2] <= 42.36449648798467
 R122: - x[2,0,0] + x[3,1,0] + dif[3,2,0] >= 0
 R123: x[2,0,0] - x[3,1,0] + dif[3,2,0] >= 0
 R124: - x[2,0,1] + x[3,1,1] + dif[3,2,1] >= 0
 R125: x[2,0,1] - x[3,1,1] + dif[3,2,1] >= 0
 p2: p[3,4] - 23.13201952024425 z[3,4] >= 0
 p3: p[3,4] - 47.1268683544601 z[3,4] - dcc[3,4] >= -47.1268683544601
 R128: dcc[3,4] <= 47.1268683544601
 R129: x[3,1,0] - x[4,0,0] + dif[3,4,0] >= 0
 R130: - x[3,1,0] + x[4,0,0] + dif[3,4,0] >= 0
 R131: x[3,1,1] - x[4,0,1] + dif[3,4,1] >= 0
 R132: - x[3,1,1] + x[4,0,1] + dif[3,4,1] >= 0
 p2: p[3,5] - 17.50116293870481 z[3,5] >= 0
 p3: p[3,5] - 49.72028160036835 z[3,5] - dcc[3,5] >= -49.72028160036835
 R135: dcc[3,5] <= 49.72028160036835
 R136: x[3,1,0] - x[5,0,0] + dif[3,5,0] >= 0
 R137: - x[3,1,0] + x[5,0,0] + dif[3,5,0] >= 0
 R138: x[3,1,1] - x[5,0,1] + dif[3,5,1] >= 0
 R139: - x[3,1,1] + x[5,0,1] + dif[3,5,1] >= 0
 p2: p[4,0] - 30.80261866542114 z[4,0] >= 0
 p3: p[4,0] - 48.95650839658538 z[4,0] - dcc[4,0] >= -48.95650839658538
 R142: dcc[4,0] <= 48.95650839658538
 R143: - x[0,0,0] + x[4,1,0] + dif[4,0,0] >= 0
 R144: x[0,0,0] - x[4,1,0] + dif[4,0,0] >= 0
 R145: - x[0,0,1] + x[4,1,1] + dif[4,0,1] >= 0
 R146: x[0,0,1] - x[4,1,1] + dif[4,0,1] >= 0
 p2: p[4,1] - 62.05679570846873 z[4,1] >= 0
 p3: p[4,1] - 83.24272372374919 z[4,1] - dcc[4,1] >= -83.24272372374919
 R149: dcc[4,1] <= 83.24272372374919
 R150: - x[1,0,0] + x[4,1,0] + dif[4,1,0] >= 0
 R151: x[1,0,0] - x[4,1,0] + dif[4,1,0] >= 0
 R152: - x[1,0,1] + x[4,1,1] + dif[4,1,1] >= 0
 R153: x[1,0,1] - x[4,1,1] + dif[4,1,1] >= 0
 p2: p[4,2] - 14.1038636994017 z[4,2] >= 0
 p3: p[4,2] - 43.53970550133123 z[4,2] - dcc[4,2] >= -43.53970550133123
 R156: dcc[4,2] <= 43.53970550133123
 R157: - x[2,0,0] + x[4,1,0] + dif[4,2,0] >= 0
 R158: x[2,0,0] - x[4,1,0] + dif[4,2,0] >= 0
 R159: - x[2,0,1] + x[4,1,1] + dif[4,2,1] >= 0
 R160: x[2,0,1] - x[4,1,1] + dif[4,2,1] >= 0
 p2: p[4,3] - 23.13201952024425 z[4,3] >= 0
 p3: p[4,3] - 47.1268683544601 z[4,3] - dcc[4,3] >= -47.1268683544601
 R163: dcc[4,3] <= 47.1268683544601
 R164: - x[3,0,0] + x[4,1,0] + dif[4,3,0] >= 0
 R165: x[3,0,0] - x[4,1,0] + dif[4,3,0] >= 0
 R166: - x[3,0,1] + x[4,1,1] + dif[4,3,1] >= 0
 R167: x[3,0,1] - x[4,1,1] + dif[4,3,1] >= 0
 p2: p[4,5] - 1.111601650305694 z[4,5] >= 0
 p3: p[4,5] - 29.91264515493698 z[4,5] - dcc[4,5] >= -29.91264515493698
 R170: dcc[4,5] <= 29.91264515493698
 R171: x[4,1,0] - x[5,0,0] + dif[4,5,0] >= 0
 R172: - x[4,1,0] + x[5,0,0] + dif[4,5,0] >= 0
 R173: x[4,1,1] - x[5,0,1] + dif[4,5,1] >= 0
 R174: - x[4,1,1] + x[5,0,1] + dif[4,5,1] >= 0
 p2: p[5,0] - 20.4730214870296 z[5,0] >= 0
 p3: p[5,0] - 45.48054996852971 z[5,0] - dcc[5,0] >= -45.48054996852971
 R177: dcc[5,0] <= 45.48054996852971
 R178: - x[0,0,0] + x[5,1,0] + dif[5,0,0] >= 0
 R179: x[0,0,0] - x[5,1,0] + dif[5,0,0] >= 0
 R180: - x[0,0,1] + x[5,1,1] + dif[5,0,1] >= 0
 R181: x[0,0,1] - x[5,1,1] + dif[5,0,1] >= 0
 p2: p[5,1] - 64.04002528189689 z[5,1] >= 0
 p3: p[5,1] - 91.03792602875696 z[5,1] - dcc[5,1] >= -91.03792602875696
 R184: dcc[5,1] <= 91.03792602875696
 R185: - x[1,0,0] + x[5,1,0] + dif[5,1,0] >= 0
 R186: x[1,0,0] - x[5,1,0] + dif[5,1,0] >= 0
 R187: - x[1,0,1] + x[5,1,1] + dif[5,1,1] >= 0
 R188: x[1,0,1] - x[5,1,1] + dif[5,1,1] >= 0
 p2: p[5,2] - 2.915010060866175 z[5,2] >= 0
 p3: p[5,2] - 35.21115849754733 z[5,2] - dcc[5,2] >= -35.21115849754733
 R191: dcc[5,2] <= 35.21115849754733
 R192: - x[2,0,0] + x[5,1,0] + dif[5,2,0] >= 0
 R193: x[2,0,0] - x[5,1,0] + dif[5,2,0] >= 0
 R194: - x[2,0,1] + x[5,1,1] + dif[5,2,1] >= 0
 R195: x[2,0,1] - x[5,1,1] + dif[5,2,1] >= 0
 p2: p[5,3] - 17.50116293870481 z[5,3] >= 0
 p3: p[5,3] - 49.72028160036835 z[5,3] - dcc[5,3] >= -49.72028160036835
 R198: dcc[5,3] <= 49.72028160036835
 R199: - x[3,0,0] + x[5,1,0] + dif[5,3,0] >= 0
 R200: x[3,0,0] - x[5,1,0] + dif[5,3,0] >= 0
 R201: - x[3,0,1] + x[5,1,1] + dif[5,3,1] >= 0
 R202: x[3,0,1] - x[5,1,1] + dif[5,3,1] >= 0
 p2: p[5,4] - 1.111601650305694 z[5,4] >= 0
 p3: p[5,4] - 29.91264515493698 z[5,4] - dcc[5,4] >= -29.91264515493698
 R205: dcc[5,4] <= 29.91264515493698
 R206: - x[4,0,0] + x[5,1,0] + dif[5,4,0] >= 0
 R207: x[4,0,0] - x[5,1,0] + dif[5,4,0] >= 0
 R208: - x[4,0,1] + x[5,1,1] + dif[5,4,1] >= 0
 R209: x[4,0,1] - x[5,1,1] + dif[5,4,1] >= 0
 R210: z[0,1] + z[0,2] + z[0,3] + z[0,4] + z[0,5] = 1
 R211: z[1,0] + z[1,2] + z[1,3] + z[1,4] + z[1,5] = 1
 R212: z[2,0] + z[2,1] + z[2,3] + z[2,4] + z[2,5] = 1
 R213: z[3,0] + z[3,1] + z[3,2] + z[3,4] + z[3,5] = 1
 R214: z[4,0] + z[4,1] + z[4,2] + z[4,3] + z[4,5] = 1
 R215: z[5,0] + z[5,1] + z[5,2] + z[5,3] + z[5,4] = 1
 R216: z[1,0] + z[2,0] + z[3,0] + z[4,0] + z[5,0] = 1
 R217: z[0,1] + z[2,1] + z[3,1] + z[4,1] + z[5,1] = 1
 R218: z[0,2] + z[1,2] + z[3,2] + z[4,2] + z[5,2] = 1
 R219: z[0,3] + z[1,3] + z[2,3] + z[4,3] + z[5,3] = 1
 R220: z[0,4] + z[1,4] + z[2,4] + z[3,4] + z[5,4] = 1
 R221: z[0,5] + z[1,5] + z[2,5] + z[3,5] + z[4,5] = 1
 rest7: z[0,1] + z[1,0] <= 1
 rest7: z[0,2] + z[2,0] <= 1
 rest7: z[0,3] + z[3,0] <= 1
 rest7: z[0,4] + z[4,0] <= 1
 rest7: z[0,5] + z[5,0] <= 1
 rest7: z[0,1] + z[1,0] <= 1
 rest7: z[1,2] + z[2,1] <= 1
 rest7: z[1,3] + z[3,1] <= 1
 rest7: z[1,4] + z[4,1] <= 1
 rest7: z[1,5] + z[5,1] <= 1
 rest7: z[0,2] + z[2,0] <= 1
 rest7: z[1,2] + z[2,1] <= 1
 rest7: z[2,3] + z[3,2] <= 1
 rest7: z[2,4] + z[4,2] <= 1
 rest7: z[2,5] + z[5,2] <= 1
 rest7: z[0,3] + z[3,0] <= 1
 rest7: z[1,3] + z[3,1] <= 1
 rest7: z[2,3] + z[3,2] <= 1
 rest7: z[3,4] + z[4,3] <= 1
 rest7: z[3,5] + z[5,3] <= 1
 rest7: z[0,4] + z[4,0] <= 1
 rest7: z[1,4] + z[4,1] <= 1
 rest7: z[2,4] + z[4,2] <= 1
 rest7: z[3,4] + z[4,3] <= 1
 rest7: z[4,5] + z[5,4] <= 1
 rest7: z[0,5] + z[5,0] <= 1
 rest7: z[1,5] + z[5,1] <= 1
 rest7: z[2,5] + z[5,2] <= 1
 rest7: z[3,5] + z[5,3] <= 1
 rest7: z[4,5] + z[5,4] <= 1
 R252: 6 z[1,2] + sc[1] - sc[2] <= 5
 R253: 6 z[1,3] + sc[1] - sc[3] <= 5
 R254: 6 z[1,4] + sc[1] - sc[4] <= 5
 R255: 6 z[1,5] + sc[1] - sc[5] <= 5
 R256: 6 z[2,1] - sc[1] + sc[2] <= 5
 R257: 6 z[2,3] + sc[2] - sc[3] <= 5
 R258: 6 z[2,4] + sc[2] - sc[4] <= 5
 R259: 6 z[2,5] + sc[2] - sc[5] <= 5
 R260: 6 z[3,1] - sc[1] + sc[3] <= 5
 R261: 6 z[3,2] - sc[2] + sc[3] <= 5
 R262: 6 z[3,4] + sc[3] - sc[4] <= 5
 R263: 6 z[3,5] + sc[3] - sc[5] <= 5
 R264: 6 z[4,1] - sc[1] + sc[4] <= 5
 R265: 6 z[4,2] - sc[2] + sc[4] <= 5
 R266: 6 z[4,3] - sc[3] + sc[4] <= 5
 R267: 6 z[4,5] + sc[4] - sc[5] <= 5
 R268: 6 z[5,1] - sc[1] + sc[5] <= 5
 R269: 6 z[5,2] - sc[2] + sc[5] <= 5
 R270: 6 z[5,3] - sc[3] + sc[5] <= 5
 R271: 6 z[5,4] - sc[4] + sc[5] <= 5
 rest10: sc[0] = 0
 rest11: sc[1] >= 1
 rest11: sc[2] >= 1
 rest11: sc[3] >= 1
 rest11: sc[4] >= 1
 rest11: sc[5] >= 1
 rest12: 4 z[0,1] - sc[0] + sc[1] <= 5
 rest12: 4 z[0,2] - sc[0] + sc[2] <= 5
 rest12: 4 z[0,3] - sc[0] + sc[3] <= 5
 rest12: 4 z[0,4] - sc[0] + sc[4] <= 5
 rest12: 4 z[0,5] - sc[0] + sc[5] <= 5
 rest13: 5 z[1,0] + sc[0] - sc[1] <= 0
 rest13: 5 z[2,0] + sc[0] - sc[2] <= 0
 rest13: 5 z[3,0] + sc[0] - sc[3] <= 0
 rest13: 5 z[4,0] + sc[0] - sc[4] <= 0
 rest13: 5 z[5,0] + sc[0] - sc[5] <= 0
 R288: 6 z[0,1] + sc[0] - sc[1] <= 5
 R289: 6 z[0,2] + sc[0] - sc[2] <= 5
 R290: 6 z[0,3] + sc[0] - sc[3] <= 5
 R291: 6 z[0,4] + sc[0] - sc[4] <= 5
 R292: 6 z[0,5] + sc[0] - sc[5] <= 5
 R293: 6 z[1,2] + sc[1] - sc[2] <= 5
 R294: 6 z[1,3] + sc[1] - sc[3] <= 5
 R295: 6 z[1,4] + sc[1] - sc[4] <= 5
 R296: 6 z[1,5] + sc[1] - sc[5] <= 5
 R297: 6 z[2,1] - sc[1] + sc[2] <= 5
 R298: 6 z[2,3] + sc[2] - sc[3] <= 5
 R299: 6 z[2,4] + sc[2] - sc[4] <= 5
 R300: 6 z[2,5] + sc[2] - sc[5] <= 5
 R301: 6 z[3,1] - sc[1] + sc[3] <= 5
 R302: 6 z[3,2] - sc[2] + sc[3] <= 5
 R303: 6 z[3,4] + sc[3] - sc[4] <= 5
 R304: 6 z[3,5] + sc[3] - sc[5] <= 5
 R305: 6 z[4,1] - sc[1] + sc[4] <= 5
 R306: 6 z[4,2] - sc[2] + sc[4] <= 5
 R307: 6 z[4,3] - sc[3] + sc[4] <= 5
 R308: 6 z[4,5] + sc[4] - sc[5] <= 5
 R309: 6 z[5,1] - sc[1] + sc[5] <= 5
 R310: 6 z[5,2] - sc[2] + sc[5] <= 5
 R311: 6 z[5,3] - sc[3] + sc[5] <= 5
 R312: 6 z[5,4] - sc[4] + sc[5] <= 5
 R313: 4 z[0,1] - sc[0] + sc[1] <= 5
 R314: 4 z[2,1] + sc[1] - sc[2] <= 5
 R315: 4 z[3,1] + sc[1] - sc[3] <= 5
 R316: 4 z[4,1] + sc[1] - sc[4] <= 5
 R317: 4 z[5,1] + sc[1] - sc[5] <= 5
 R318: 4 z[0,2] - sc[0] + sc[2] <= 5
 R319: 4 z[1,2] - sc[1] + sc[2] <= 5
 R320: 4 z[3,2] + sc[2] - sc[3] <= 5
 R321: 4 z[4,2] + sc[2] - sc[4] <= 5
 R322: 4 z[5,2] + sc[2] - sc[5] <= 5
 R323: 4 z[0,3] - sc[0] + sc[3] <= 5
 R324: 4 z[1,3] - sc[1] + sc[3] <= 5
 R325: 4 z[2,3] - sc[2] + sc[3] <= 5
 R326: 4 z[4,3] + sc[3] - sc[4] <= 5
 R327: 4 z[5,3] + sc[3] - sc[5] <= 5
 R328: 4 z[0,4] - sc[0] + sc[4] <= 5
 R329: 4 z[1,4] - sc[1] + sc[4] <= 5
 R330: 4 z[2,4] - sc[2] + sc[4] <= 5
 R331: 4 z[3,4] - sc[3] + sc[4] <= 5
 R332: 4 z[5,4] + sc[4] - sc[5] <= 5
 R333: 4 z[0,5] - sc[0] + sc[5] <= 5
 R334: 4 z[1,5] - sc[1] + sc[5] <= 5
 R335: 4 z[2,5] - sc[2] + sc[5] <= 5
 R336: 4 z[3,5] - sc[3] + sc[5] <= 5
 R337: 4 z[4,5] - sc[4] + sc[5] <= 5
 LiftedLB(1): - z[0,1] + 3 z[1,0] - sc[1] <= -2
 LiftedUB(1): 3 z[0,1] - z[1,0] + sc[1] <= 4
 LiftedLB(2): - z[0,2] + 3 z[2,0] - sc[2] <= -2
 LiftedUB(2): 3 z[0,2] - z[2,0] + sc[2] <= 4
 LiftedLB(3): - z[0,3] + 3 z[3,0] - sc[3] <= -2
 LiftedUB(3): 3 z[0,3] - z[3,0] + sc[3] <= 4
 LiftedLB(4): - z[0,4] + 3 z[4,0] - sc[4] <= -2
 LiftedUB(4): 3 z[0,4] - z[4,0] + sc[4] <= 4
 LiftedLB(5): - z[0,5] + 3 z[5,0] - sc[5] <= -2
 LiftedUB(5): 3 z[0,5] - z[5,0] + sc[5] <= 4
 R348: dc[0] <= 10.24550800839179
 envConv: mu[0,0] + mu[0,1] + mu[0,2] + mu[0,3] + mu[0,4] = 1
 inP1: x[0,0,0] - 44.00907639005011 mu[0,0] - 49.30949667783538 mu[0,1]
   - 44.3707962467661 mu[0,2] - 39.07037595898078 mu[0,3]
   - 44.00907639005015 mu[0,4] = 0
 inP1: x[0,1,0] - 44.00907639005011 mu[0,0] - 49.30949667783538 mu[0,1]
   - 44.3707962467661 mu[0,2] - 39.07037595898078 mu[0,3]
   - 44.00907639005015 mu[0,4] = 0
 inP1: x[0,0,1] - 43.23201825366974 mu[0,0] - 48.17071868473905 mu[0,1]
   - 53.47113897252434 mu[0,2] - 48.53243854145495 mu[0,3]
   - 43.23201825366974 mu[0,4] = 0
 inP1: x[0,1,1] - 43.23201825366974 mu[0,0] - 48.17071868473905 mu[0,1]
   - 53.47113897252434 mu[0,2] - 48.53243854145495 mu[0,3]
   - 43.23201825366974 mu[0,4] = 0
 R354: - x[0,0,0] + x[0,1,0] + difc[0,0] >= 0
 R355: x[0,0,0] - x[0,1,0] + difc[0,0] >= 0
 R356: - x[0,0,1] + x[0,1,1] + difc[0,1] >= 0
 R357: x[0,0,1] - x[0,1,1] + difc[0,1] >= 0
 R358: dc[1] <= 12.49302544413949
 envConv: mu[1,0] + mu[1,1] + mu[1,2] + mu[1,3] + mu[1,4] + mu[1,5]
   + mu[1,6] + mu[1,7] = 1
 inP1: x[1,0,0] - 93.43498503608726 mu[1,0] - 88.37073855839557 mu[1,1]
   - 83.41908494443751 mu[1,2] - 82.30872036084959 mu[1,3]
   - 85.87577198638333 mu[1,4] - 91.43417719241899 mu[1,5]
   - 94.79834348800881 mu[1,6] - 93.43498503608723 mu[1,7] = 0
 inP1: x[1,1,0] - 93.43498503608726 mu[1,0] - 88.37073855839557 mu[1,1]
   - 83.41908494443751 mu[1,2] - 82.30872036084959 mu[1,3]
   - 85.87577198638333 mu[1,4] - 91.43417719241899 mu[1,5]
   - 94.79834348800881 mu[1,6] - 93.43498503608723 mu[1,7] = 0
 inP1: x[1,0,1] - 16.79237782426061 mu[1,0] - 19.08717871326375 mu[1,1]
   - 16.5585763336164 mu[1,2] - 11.11065985128138 mu[1,3]
   - 6.845821494701 mu[1,4] - 6.975571533228173 mu[1,5]
   - 11.40220554143367 mu[1,6] - 16.79237782426065 mu[1,7] = 0
 inP1: x[1,1,1] - 16.79237782426061 mu[1,0] - 19.08717871326375 mu[1,1]
   - 16.5585763336164 mu[1,2] - 11.11065985128138 mu[1,3]
   - 6.845821494701 mu[1,4] - 6.975571533228173 mu[1,5]
   - 11.40220554143367 mu[1,6] - 16.79237782426065 mu[1,7] = 0
 R364: - x[1,0,0] + x[1,1,0] + difc[1,0] >= 0
 R365: x[1,0,0] - x[1,1,0] + difc[1,0] >= 0
 R366: - x[1,0,1] + x[1,1,1] + difc[1,1] >= 0
 R367: x[1,0,1] - x[1,1,1] + difc[1,1] >= 0
 R368: dc[2] <= 18.6312293386462
 envConv: mu[2,0] + mu[2,1] + mu[2,2] + mu[2,3] + mu[2,4] + mu[2,5]
   + mu[2,6] = 1
 inP1: x[2,0,0] - 46.05030320553117 mu[2,0] - 51.79030116523567 mu[2,1]
   - 48.30618139679378 mu[2,2] - 39.08206366864765 mu[2,3]
   - 33.34206570894307 mu[2,4] - 36.82618547738488 mu[2,5]
   - 46.05030320553123 mu[2,6] = 0
 inP1: x[2,1,0] - 46.05030320553117 mu[2,0] - 51.79030116523567 mu[2,1]
   - 48.30618139679378 mu[2,2] - 39.08206366864765 mu[2,3]
   - 33.34206570894307 mu[2,4] - 36.82618547738488 mu[2,5]
   - 46.05030320553123 mu[2,6] = 0
 inP1: x[2,0,1] - 55.28711754334446 mu[2,0] - 62.62422188292535 mu[2,1]
   - 71.26375810349073 mu[2,2] - 72.56618998447522 mu[2,3]
   - 65.22908564489438 mu[2,4] - 56.58954942432898 mu[2,5]
   - 55.28711754334449 mu[2,6] = 0
 inP1: x[2,1,1] - 55.28711754334446 mu[2,0] - 62.62422188292535 mu[2,1]
   - 71.26375810349073 mu[2,2] - 72.56618998447522 mu[2,3]
   - 65.22908564489438 mu[2,4] - 56.58954942432898 mu[2,5]
   - 55.28711754334449 mu[2,6] = 0
 R374: - x[2,0,0] + x[2,1,0] + difc[2,0] >= 0
 R375: x[2,0,0] - x[2,1,0] + difc[2,0] >= 0
 R376: - x[2,0,1] + x[2,1,1] + difc[2,1] >= 0
 R377: x[2,0,1] - x[2,1,1] + difc[2,1] >= 0
 R378: dc[3] <= 18.07269257885721
 R379: - x[3,0,0] + x[3,1,0] + difc[3,0] >= 0
 R380: x[3,0,0] - x[3,1,0] + difc[3,0] >= 0
 R381: - x[3,0,1] + x[3,1,1] + difc[3,1] >= 0
 R382: x[3,0,1] - x[3,1,1] + difc[3,1] >= 0
 u0: landa[4,0] - landa[4,1] + min[4] - max[4] = 0
 u1: min[4] + max[4] >= 2
 u2: 2 u[4] + max[4] <= 2
 u3: - 2 u[4] + min[4] <= 0
 R387: dc[4] = 19.93116610428314
 R388: landa[4,0] - sublanda[4,0,1] - 3 s[4,0,0] >= -2
 R389: landa[4,0] - sublanda[4,0,1] + 3 s[4,0,0] <= 4
 R390: landa[4,0] - sublanda[4,0,2] - 3 s[4,0,1] >= -1
 R391: landa[4,0] - sublanda[4,0,2] + 3 s[4,0,1] <= 5
 R392: sublanda[4,0,0] - s[4,0,0] <= 0
 R393: sublanda[4,0,2] - s[4,0,1] <= 0
 R394: sublanda[4,0,1] - s[4,0,0] - s[4,0,1] <= 0
 R395: s[4,0,0] + s[4,0,1] = 1
 R396: sublanda[4,0,0] + sublanda[4,0,1] + sublanda[4,0,2] = 1
 seg1: x[4,0,0] - 58.80337785888234 sublanda[4,0,0]
   - 66.88394791287509 sublanda[4,0,1] - 73.89301229155296 sublanda[4,0,2]
   = 0
 seg1: x[4,0,1] - 80.68330361734735 sublanda[4,0,0]
   - 86.51573305726748 sublanda[4,0,1] - 79.4315350006996 sublanda[4,0,2]
   = 0
 R399: landa[4,1] - sublanda[4,1,1] - 3 s[4,1,0] >= -2
 R400: landa[4,1] - sublanda[4,1,1] + 3 s[4,1,0] <= 4
 R401: landa[4,1] - sublanda[4,1,2] - 3 s[4,1,1] >= -1
 R402: landa[4,1] - sublanda[4,1,2] + 3 s[4,1,1] <= 5
 R403: sublanda[4,1,0] - s[4,1,0] <= 0
 R404: sublanda[4,1,2] - s[4,1,1] <= 0
 R405: sublanda[4,1,1] - s[4,1,0] - s[4,1,1] <= 0
 R406: s[4,1,0] + s[4,1,1] = 1
 R407: sublanda[4,1,0] + sublanda[4,1,1] + sublanda[4,1,2] = 1
 seg1: x[4,1,0] - 58.80337785888234 sublanda[4,1,0]
   - 66.88394791287509 sublanda[4,1,1] - 73.89301229155296 sublanda[4,1,2]
   = 0
 seg1: x[4,1,1] - 80.68330361734735 sublanda[4,1,0]
   - 86.51573305726748 sublanda[4,1,1] - 79.4315350006996 sublanda[4,1,2]
   = 0
 R410: dc[5] <= 15.08550994274994
 envConv: mu[5,0] + mu[5,1] + mu[5,2] + mu[5,3] + mu[5,4] + mu[5,5]
   + mu[5,6] + mu[5,7] + mu[5,8] = 1
 inP1: x[5,0,0] - 50.68721216612108 mu[5,0] - 56.23485711490737 mu[5,1]
   - 59.02828229964742 mu[5,2] - 57.43113713259506 mu[5,3]
   - 52.37900759153094 mu[5,4] - 46.83136264274463 mu[5,5]
   - 44.03793745800451 mu[5,6] - 45.63508262505696 mu[5,7]
   - 50.68721216612113 mu[5,8] = 0
 inP1: x[5,1,0] - 50.68721216612108 mu[5,0] - 56.23485711490737 mu[5,1]
   - 59.02828229964742 mu[5,2] - 57.43113713259506 mu[5,3]
   - 52.37900759153094 mu[5,4] - 46.83136264274463 mu[5,5]
   - 44.03793745800451 mu[5,6] - 45.63508262505696 mu[5,7]
   - 50.68721216612113 mu[5,8] = 0
 inP1: x[5,0,1] - 72.94541684725168 mu[5,0] - 74.54256201430405 mu[5,1]
   - 79.5946915553682 mu[5,2] - 85.1423365041545 mu[5,3]
   - 87.93576168889456 mu[5,4] - 86.33861652184224 mu[5,5]
   - 81.28648698077792 mu[5,6] - 75.73884203199165 mu[5,7]
   - 72.94541684725166 mu[5,8] = 0
 inP1: x[5,1,1] - 72.94541684725168 mu[5,0] - 74.54256201430405 mu[5,1]
   - 79.5946915553682 mu[5,2] - 85.1423365041545 mu[5,3]
   - 87.93576168889456 mu[5,4] - 86.33861652184224 mu[5,5]
   - 81.28648698077792 mu[5,6] - 75.73884203199165 mu[5,7]
   - 72.94541684725166 mu[5,8] = 0
 R416: - x[5,0,0] + x[5,1,0] + difc[5,0] >= 0
 R417: x[5,0,0] - x[5,1,0] + difc[5,0] >= 0
 R418: - x[5,0,1] + x[5,1,1] + difc[5,1] >= 0
 R419: x[5,0,1] - x[5,1,1] + difc[5,1] >= 0
 qc0: [ - dcc[0,1] ^2 + dif[0,1,0] ^2 + dif[0,1,1] ^2 ] <= 0
 qc1: [ - dcc[0,2] ^2 + dif[0,2,0] ^2 + dif[0,2,1] ^2 ] <= 0
 qc2: [ - dcc[0,3] ^2 + dif[0,3,0] ^2 + dif[0,3,1] ^2 ] <= 0
 qc3: [ - dcc[0,4] ^2 + dif[0,4,0] ^2 + dif[0,4,1] ^2 ] <= 0
 qc4: [ - dcc[0,5] ^2 + dif[0,5,0] ^2 + dif[0,5,1] ^2 ] <= 0
 qc5: [ - dcc[1,0] ^2 + dif[1,0,0] ^2 + dif[1,0,1] ^2 ] <= 0
 qc6: [ - dcc[1,2] ^2 + dif[1,2,0] ^2 + dif[1,2,1] ^2 ] <= 0
 qc7: [ - dcc[1,3] ^2 + dif[1,3,0] ^2 + dif[1,3,1] ^2 ] <= 0
 qc8: [ - dcc[1,4] ^2 + dif[1,4,0] ^2 + dif[1,4,1] ^2 ] <= 0
 qc9: [ - dcc[1,5] ^2 + dif[1,5,0] ^2 + dif[1,5,1] ^2 ] <= 0
 qc10: [ - dcc[2,0] ^2 + dif[2,0,0] ^2 + dif[2,0,1] ^2 ] <= 0
 qc11: [ - dcc[2,1] ^2 + dif[2,1,0] ^2 + dif[2,1,1] ^2 ] <= 0
 qc12: [ - dcc[2,3] ^2 + dif[2,3,0] ^2 + dif[2,3,1] ^2 ] <= 0
 qc13: [ - dcc[2,4] ^2 + dif[2,4,0] ^2 + dif[2,4,1] ^2 ] <= 0
 qc14: [ - dcc[2,5] ^2 + dif[2,5,0] ^2 + dif[2,5,1] ^2 ] <= 0
 qc15: [ - dcc[3,0] ^2 + dif[3,0,0] ^2 + dif[3,0,1] ^2 ] <= 0
 qc16: [ - dcc[3,1] ^2 + dif[3,1,0] ^2 + dif[3,1,1] ^2 ] <= 0
 qc17: [ - dcc[3,2] ^2 + dif[3,2,0] ^2 + dif[3,2,1] ^2 ] <= 0
 qc18: [ - dcc[3,4] ^2 + dif[3,4,0] ^2 + dif[3,4,1] ^2 ] <= 0
 qc19: [ - dcc[3,5] ^2 + dif[3,5,0] ^2 + dif[3,5,1] ^2 ] <= 0
 qc20: [ - dcc[4,0] ^2 + dif[4,0,0] ^2 + dif[4,0,1] ^2 ] <= 0
 qc21: [ - dcc[4,1] ^2 + dif[4,1,0] ^2 + dif[4,1,1] ^2 ] <= 0
 qc22: [ - dcc[4,2] ^2 + dif[4,2,0] ^2 + dif[4,2,1] ^2 ] <= 0
 qc23: [ - dcc[4,3] ^2 + dif[4,3,0] ^2 + dif[4,3,1] ^2 ] <= 0
 qc24: [ - dcc[4,5] ^2 + dif[4,5,0] ^2 + dif[4,5,1] ^2 ] <= 0
 qc25: [ - dcc[5,0] ^2 + dif[5,0,0] ^2 + dif[5,0,1] ^2 ] <= 0
 qc26: [ - dcc[5,1] ^2 + dif[5,1,0] ^2 + dif[5,1,1] ^2 ] <= 0
 qc27: [ - dcc[5,2] ^2 + dif[5,2,0] ^2 + dif[5,2,1] ^2 ] <= 0
 qc28: [ - dcc[5,3] ^2 + dif[5,3,0] ^2 + dif[5,3,1] ^2 ] <= 0
 qc29: [ - dcc[5,4] ^2 + dif[5,4,0] ^2 + dif[5,4,1] ^2 ] <= 0
 qc30: [ - dc[0] ^2 + difc[0,0] ^2 + difc[0,1] ^2 ] <= 0
 qc31: [ - dc[1] ^2 + difc[1,0] ^2 + difc[1,1] ^2 ] <= 0
 qc32: [ - dc[2] ^2 + difc[2,0] ^2 + difc[2,1] ^2 ] <= 0
 inC1: - 124.5696495570278 x[3,0,0] - 97.40776777647071 x[3,0,1] + [
   x[3,0,0] ^2 + x[3,0,1] ^2 ] <= -6169.812149226424
 inC1: - 124.5696495570278 x[3,1,0] - 97.40776777647071 x[3,1,1] + [
   x[3,1,0] ^2 + x[3,1,1] ^2 ] <= -6169.812149226424
 qc35: [ - dc[3] ^2 + difc[3,0] ^2 + difc[3,1] ^2 ] <= 0
 qc36: [ - dc[5] ^2 + difc[5,0] ^2 + difc[5,1] ^2 ] <= 0
Bounds
 mu[0,0] <= 1
 mu[0,1] <= 1
 mu[0,2] <= 1
 mu[0,3] <= 1
 mu[0,4] <= 1
 mu[1,0] <= 1
 mu[1,1] <= 1
 mu[1,2] <= 1
 mu[1,3] <= 1
 mu[1,4] <= 1
 mu[1,5] <= 1
 mu[1,6] <= 1
 mu[1,7] <= 1
 mu[2,0] <= 1
 mu[2,1] <= 1
 mu[2,2] <= 1
 mu[2,3] <= 1
 mu[2,4] <= 1
 mu[2,5] <= 1
 mu[2,6] <= 1
 mu[5,0] <= 1
 mu[5,1] <= 1
 mu[5,2] <= 1
 mu[5,3] <= 1
 mu[5,4] <= 1
 mu[5,5] <= 1
 mu[5,6] <= 1
 mu[5,7] <= 1
 mu[5,8] <= 1
 sublanda[4,0,0] <= 1
 sublanda[4,1,0] <= 1
 sublanda[4,0,1] <= 1
 sublanda[4,1,1] <= 1
 sublanda[4,0,2] <= 1
 sublanda[4,1,2] <= 1
 sc[0] <= 5
 sc[1] <= 5
 sc[2] <= 5
 sc[3] <= 5
 sc[4] <= 5
 sc[5] <= 5
Binaries
 z[0,1] z[0,2] z[0,3] z[0,4] z[0,5] z[1,0] z[1,2] z[1,3] z[1,4] z[1,5]
 z[2,0] z[2,1] z[2,3] z[2,4] z[2,5] z[3,0] z[3,1] z[3,2] z[3,4] z[3,5]
 z[4,0] z[4,1] z[4,2] z[4,3] z[4,5] z[5,0] z[5,1] z[5,2] z[5,3] z[5,4]
 s[4,0,0] s[4,1,0] s[4,0,1] s[4,1,1] u[4]
End
